NAME : rbg021.8.tw.4478.tour
COMMENT : Length = 4478
COMMENT : Found by LKH [Keld Helsgaun] Thu Jan 16 16:40:34 2020
TYPE : TOUR
DIMENSION : 20
TOUR_SECTION
1
2
13
11
12
6
18
19
14
8
4
5
10
7
15
16
9
3
17
20
-1
EOF
